1 1 -2 0
1 1 3 0
1 -4 5 0
1 -5 6 0
1 -7 8 0
1 7 -9 0
1 -10 11 0
1 10 -3 0
1 -3 10 0
1 9 12 0
1 -9 13 0
1 14 15 0
1 -16 17 0
1 18 -19 0
1 -18 -20 0
1 21 -17 0
1 -21 -9 0
1 -22 23 0
1 23 -18 0
1 23 15 0
1 -23 16 0
1 -12 22 0
1 -12 -20 0
1 12 9 0
1 15 24 0
1 15 -22 0
1 25 -26 0
1 27 -28 0
1 27 29 0
1 30 -27 0
1 -31 -26 0
1 31 -32 0
1 -32 -33 0
1 34 29 0
1 11 -35 0
1 -11 30 0
1 -36 28 0
1 -36 -3 0
1 -29 37 0
1 -29 36 0
1 29 38 0
1 -29 -39 0
1 40 41 0
1 28 34 0
1 -42 36 0
1 42 -43 0
1 39 -44 0
1 39 -10 0
1 45 -22 0
1 -37 -46 0
1 -46 -37 0
1 46 44 0
1 46 -17 0
1 47 -38 0
1 48 -36 0
1 -49 50 0
1 -51 -52 0
1 52 49 0
1 -52 53 0
1 52 -54 0
1 -52 -55 0
1 -24 56 0
1 -24 -57 0
1 58 59 0
1 -58 -60 0
1 61 59 0
1 62 63 0
1 62 -64 0
1 50 61 0
1 -65 66 0
1 -65 -49 0
1 65 62 0
1 -67 68 0
1 69 -70 0
1 -68 71 0
1 -72 61 0
1 73 -74 0
1 73 -13 0
1 -63 -75 0
1 63 67 0
1 76 77 0
1 -76 -78 0
1 79 80 0
1 79 -33 0
1 79 78 0
1 81 -82 0
1 83 -84 0
1 83 -81 0
1 -33 -85 0
1 -35 86 0
1 -87 88 0
1 -87 89 0
1 -90 -31 0
1 90 -91 0
1 -92 -35 0
1 -92 -78 0
1 93 -87 0
1 -77 -90 0
1 94 -31 0
1 -94 -88 0
1 94 91 0
1 -95 31 0
1 95 30 0
1 95 -94 0
1 -96 97 0
1 96 -98 0
1 -96 -92 0
1 -97 -99 0
1 97 88 0
1 -97 -100 0
1 -101 -91 0
1 91 -102 0
1 91 -94 0
1 103 104 0
1 -88 -105 0
1 -88 -106 0
1 38 -91 0
1 102 107 0
1 102 -49 0
1 -102 91 0
1 -108 -99 0
1 109 -110 0
1 -98 -111 0
1 99 -112 0
1 -100 102 0
1 100 -113 0
1 -100 -114 0
1 -100 115 0
1 -116 -107 0
1 -116 -105 0
1 -116 -60 0
1 117 118 0
1 41 102 0
1 -41 40 0
1 -41 108 0
1 119 28 0
1 -119 -116 0
1 119 108 0
1 -120 52 0
1 53 56 0
1 53 114 0
1 -53 121 0
1 53 52 0
1 -66 122 0
1 -66 -123 0
1 66 54 0
1 -124 -122 0
1 124 -41 0
1 125 -126 0
1 -121 -64 0
1 -122 127 0
1 122 128 0
1 -122 120 0
1 128 129 0
1 128 117 0
1 -128 53 0
1 130 -131 0
1 130 132 0
1 -130 -133 0
1 -132 -70 0
1 134 -135 0
1 136 63 0
1 137 -136 0
1 137 138 0
1 -139 140 0
1 -139 66 0
1 54 52 0
1 -140 -129 0
1 141 -142 0
1 138 -135 0
1 143 75 0
1 -143 -144 0
1 -143 -145 0
1 -143 71 0
1 146 -141 0
1 144 147 0
1 -135 -134 0
1 -135 148 0
1 -135 149 0
1 150 -75 0
1 -150 151 0
1 151 142 0
1 152 -147 0
1 -153 75 0
1 -153 142 0
1 71 -154 0
1 71 -150 0
1 -155 -71 0
1 -145 156 0
1 -145 75 0
1 -157 158 0
1 -159 -160 0
1 159 161 0
1 159 162 0
1 -160 163 0
1 -164 -86 0
1 164 -165 0
1 166 -167 0
1 -163 166 0
1 163 -168 0
1 86 -81 0
1 169 82 0
1 169 162 0
1 -82 -161 0
1 -82 -170 0
1 82 169 0
1 170 86 0
1 170 -171 0
1 -170 169 0
1 -172 173 0
1 -161 -171 0
1 -162 -174 0
1 175 -83 0
1 175 -85 0
1 -80 -176 0
1 177 178 0
1 -177 172 0
1 179 -180 0
1 181 169 0
1 -176 169 0
1 178 80 0
1 178 -177 0
1 182 93 0
1 -182 -38 0
1 -183 85 0
1 104 -184 0
1 -185 -186 0
1 187 182 0
1 188 189 0
1 189 183 0
1 -189 -83 0
1 -189 -190 0
1 105 -187 0
1 105 100 0
1 105 -103 0
1 191 100 0
1 191 -115 0
1 -191 -192 0
1 115 -193 0
1 115 -184 0
1 -115 64 0
1 -115 -194 0
1 195 -196 0
1 195 -197 0
1 -186 -93 0
1 186 -115 0
1 -186 195 0
1 198 -199 0
1 -114 186 0
1 196 -195 0
1 -196 -192 0
1 -200 -201 0
1 -200 -106 0
1 193 -202 0
1 193 127 0
1 203 191 0
1 203 -91 0
1 203 -204 0
1 192 205 0
1 -192 -114 0
1 -192 115 0
1 -106 206 0
1 -131 41 0
1 -204 -207 0
1 127 203 0
1 -208 209 0
1 201 126 0
1 -201 210 0
1 113 100 0
1 113 204 0
1 129 126 0
1 126 -211 0
1 126 123 0
1 210 -212 0
1 -213 -214 0
1 213 215 0
1 -213 207 0
1 216 129 0
1 216 -127 0
1 -214 217 0
1 218 -151 0
1 218 212 0
1 -218 219 0
1 218 220 0
1 147 -221 0
1 -147 -144 0
1 -148 -222 0
1 -148 -211 0
1 212 -148 0
1 -219 -149 0
1 215 -223 0
1 -215 -224 0
1 -220 225 0
1 149 212 0
1 -149 144 0
1 -226 -227 0
1 -226 149 0
1 -228 222 0
1 228 156 0
1 228 -145 0
1 228 -219 0
1 221 -229 0
1 -221 -230 0
1 -231 -221 0
1 -232 -148 0
1 -232 -233 0
1 232 147 0
1 222 -54 0
1 154 -231 0
1 154 155 0
1 154 -234 0
1 -235 -146 0
1 -235 236 0
1 234 -156 0
1 -234 -237 0
1 238 156 0
1 238 230 0
1 -239 240 0
1 -241 -239 0
1 242 235 0
1 -242 243 0
1 244 -242 0
1 244 71 0
1 -245 236 0
1 -240 246 0
1 240 -247 0
1 -240 145 0
1 248 249 0
1 250 -251 0
1 252 158 0
1 252 253 0
1 252 254 0
1 255 -253 0
1 -255 249 0
1 256 -257 0
1 258 -259 0
1 -168 -250 0
1 -260 -261 0
1 -261 -262 0
1 261 174 0
1 -261 -258 0
1 259 -253 0
1 -259 -249 0
1 -259 263 0
1 -259 257 0
1 -165 -264 0
1 165 161 0
1 -165 -257 0
1 -174 -80 0
1 -174 265 0
1 174 266 0
1 267 -268 0
1 269 -266 0
1 266 260 0
1 266 270 0
1 271 272 0
1 271 273 0
1 -271 -274 0
1 171 -275 0
1 -173 -183 0
1 276 277 0
1 276 -278 0
1 276 279 0
1 278 -190 0
1 -278 -280 0
1 -278 180 0
1 278 279 0
1 -279 -269 0
1 279 171 0
1 -279 -164 0
1 -281 -282 0
1 -281 276 0
1 -283 173 0
1 283 284 0
1 283 -273 0
1 -283 163 0
1 285 286 0
1 -285 -279 0
1 180 278 0
1 190 287 0
1 -190 -288 0
1 -289 -290 0
1 287 -291 0
1 287 -190 0
1 -287 -276 0
1 -287 -289 0
1 -288 -277 0
1 -288 190 0
1 -288 180 0
1 292 184 0
1 -291 -289 0
1 -199 -293 0
1 294 291 0
1 -293 291 0
1 293 209 0
1 295 -291 0
1 -295 -194 0
1 -296 -178 0
1 296 297 0
1 -298 299 0
1 298 198 0
1 -298 -300 0
1 -197 293 0
1 197 -301 0
1 -197 -186 0
1 302 -303 0
1 302 209 0
1 -302 192 0
1 209 -293 0
1 209 -300 0
1 209 304 0
1 209 305 0
1 -209 -192 0
1 -306 307 0
1 300 -308 0
1 -300 197 0
1 -301 -302 0
1 -202 309 0
1 202 304 0
1 -202 -305 0
1 -202 192 0
1 -310 299 0
1 310 303 0
1 310 297 0
1 311 -312 0
1 311 -210 0
1 -307 -299 0
1 305 307 0
1 -313 -314 0
1 313 209 0
1 -313 315 0
1 -304 202 0
1 304 -316 0
1 -304 317 0
1 303 202 0
1 -303 -302 0
1 303 209 0
1 303 -318 0
1 319 313 0
1 319 312 0
1 -319 113 0
1 -319 207 0
1 315 -320 0
1 -321 -148 0
1 321 -312 0
1 -321 322 0
1 -205 -321 0
1 -223 211 0
1 223 -217 0
1 223 220 0
1 227 314 0
1 -227 -312 0
1 -323 324 0
1 323 -325 0
1 -326 315 0
1 -320 -315 0
1 -327 -328 0
1 -329 -330 0
1 233 -331 0
1 332 323 0
1 332 -333 0
1 333 334 0
1 -328 -335 0
1 230 -232 0
1 230 -336 0
1 230 234 0
1 -243 -337 0
1 338 -339 0
1 338 333 0
1 338 340 0
1 339 -334 0
1 -339 341 0
1 339 -342 0
1 343 243 0
1 343 -338 0
1 344 345 0
1 -344 -346 0
1 346 229 0
1 346 347 0
1 -346 348 0
1 -349 350 0
1 351 238 0
1 351 -247 0
1 351 -240 0
1 352 -337 0
1 352 353 0
1 -342 339 0
1 -354 342 0
1 -354 351 0
1 337 -349 0
1 337 -243 0
1 355 356 0
1 -355 351 0
1 -357 358 0
1 -357 -359 0
1 -360 -361 0
1 -358 -357 0
1 358 362 0
1 -353 -357 0
1 -353 -358 0
1 363 -364 0
1 359 357 0
1 365 366 0
1 365 363 0
1 -365 359 0
1 -367 368 0
1 367 369 0
1 370 -371 0
1 -370 -372 0
1 373 -248 0
1 374 -372 0
1 -375 -367 0
1 -371 -370 0
1 372 -367 0
1 -372 368 0
1 372 -376 0
1 377 -378 0
1 -379 380 0
1 379 -378 0
1 -381 -382 0
1 -383 384 0
1 -378 385 0
1 378 -386 0
1 -378 377 0
1 387 -388 0
1 -257 389 0
1 -257 390 0
1 -253 391 0
1 -253 389 0
1 253 -255 0
1 -268 389 0
1 392 393 0
1 392 -380 0
1 384 -394 0
1 391 -392 0
1 -390 395 0
1 -382 395 0
1 -382 396 0
1 394 -262 0
1 -262 254 0
1 262 -384 0
1 -397 391 0
1 -397 -265 0
1 -272 398 0
1 272 271 0
1 -272 384 0
1 -399 400 0
1 399 -273 0
1 -254 -252 0
1 -254 397 0
1 -401 -397 0
1 273 402 0
1 273 -254 0
1 274 399 0
1 -274 263 0
1 -284 403 0
1 -284 -254 0
1 284 -270 0
1 -404 405 0
1 404 281 0
1 404 406 0
1 -402 -272 0
1 402 397 0
1 -402 407 0
1 -398 284 0
1 263 -408 0
1 409 400 0
1 409 406 0
1 410 409 0
1 410 -270 0
1 -411 -270 0
1 412 -405 0
1 405 413 0
1 405 -275 0
1 -405 410 0
1 -270 -284 0
1 403 404 0
1 406 412 0
1 290 287 0
1 290 286 0
1 290 -289 0
1 -290 -295 0
1 414 -280 0
1 414 -286 0
1 -414 -197 0
1 414 270 0
1 -414 415 0
1 416 -295 0
1 416 -417 0
1 417 -282 0
1 -417 280 0
1 -417 -418 0
1 -417 -419 0
1 280 290 0
1 -280 -420 0
1 -282 421 0
1 282 -422 0
1 282 414 0
1 282 -415 0
1 415 -423 0
1 -415 -411 0
1 -309 -424 0
1 -309 296 0
1 309 294 0
1 297 -425 0
1 -426 427 0
1 426 -428 0
1 429 -425 0
1 -430 -426 0
1 424 -431 0
1 418 -416 0
1 -418 432 0
1 -317 423 0
1 318 -433 0
1 -318 -303 0
1 -434 435 0
1 -434 -436 0
1 434 437 0
1 436 -317 0
1 433 -293 0
1 -433 -438 0
1 -433 -439 0
1 435 -308 0
1 428 -434 0
1 428 -440 0
1 -439 -441 0
1 -439 -442 0
1 439 -304 0
1 -443 444 0
1 445 225 0
1 -445 -436 0
1 -437 330 0
1 437 -439 0
1 437 446 0
1 441 447 0
1 -441 -437 0
1 -448 -449 0
1 -450 301 0
1 450 -451 0
1 450 -452 0
1 -450 318 0
1 -453 -312 0
1 453 454 0
1 330 -205 0
1 -330 -324 0
1 -447 233 0
1 455 456 0
1 -455 437 0
1 455 454 0
1 457 -330 0
1 457 -336 0
1 -457 458 0
1 459 -313 0
1 -459 336 0
1 454 447 0
1 444 460 0
1 -336 325 0
1 336 320 0
1 -461 -229 0
1 -461 -328 0
1 -461 -459 0
1 -335 -462 0
1 -335 -340 0
1 -340 -459 0
1 463 461 0
1 -463 -347 0
1 -463 464 0
1 -465 -347 0
1 456 -458 0
1 466 467 0
1 466 -344 0
1 347 -468 0
1 -469 470 0
1 -469 -347 0
1 471 472 0
1 471 464 0
1 462 -335 0
1 -345 343 0
1 473 339 0
1 470 -356 0
1 356 355 0
1 474 -475 0
1 -476 477 0
1 476 -473 0
1 -478 475 0
1 -479 -358 0
1 480 472 0
1 481 353 0
1 -482 483 0
1 482 -484 0
1 -482 -348 0
1 341 -485 0
1 -341 486 0
1 487 488 0
1 487 -356 0
1 -487 -486 0
1 348 489 0
1 -348 -487 0
1 -348 -480 0
1 348 -346 0
1 -490 341 0
1 -490 491 0
1 -492 493 0
1 -494 -365 0
1 -494 -485 0
1 494 493 0
1 494 -359 0
1 -485 493 0
1 485 491 0
1 485 -494 0
1 491 -481 0
1 -491 492 0
1 -491 495 0
1 -496 481 0
1 496 482 0
1 493 -485 0
1 -497 -498 0
1 499 500 0
1 501 502 0
1 498 360 0
1 -498 -503 0
1 498 -495 0
1 -504 505 0
1 504 485 0
1 -506 497 0
1 -506 -485 0
1 506 -507 0
1 -503 500 0
1 503 -508 0
1 509 -510 0
1 -511 -512 0
1 511 -513 0
1 -514 -515 0
1 369 -516 0
1 -517 -518 0
1 517 -519 0
1 520 -521 0
1 520 522 0
1 -520 523 0
1 524 -525 0
1 -526 -372 0
1 -526 -520 0
1 -522 -372 0
1 -522 -527 0
1 528 518 0
1 -528 517 0
1 529 253 0
1 529 375 0
1 386 519 0
1 530 -531 0
1 -530 -522 0
1 -530 527 0
1 527 -529 0
1 -527 532 0
1 533 534 0
1 -533 535 0
1 533 -536 0
1 -533 537 0
1 -538 -522 0
1 538 -537 0
1 396 382 0
1 396 -389 0
1 385 -390 0
1 539 -397 0
1 540 388 0
1 -540 -541 0
1 542 385 0
1 -542 -543 0
1 -543 371 0
1 543 386 0
1 -541 -544 0
1 -541 -545 0
1 -546 -547 0
1 546 -541 0
1 395 382 0
1 548 -388 0
1 -548 -549 0
1 548 -390 0
1 550 -284 0
1 -551 552 0
1 -551 -388 0
1 551 -553 0
1 554 -555 0
1 -556 557 0
1 -556 -550 0
1 -388 558 0
1 -388 539 0
1 -400 559 0
1 -400 409 0
1 400 -254 0
1 400 560 0
1 -561 399 0
1 562 -408 0
1 -562 553 0
1 -553 -563 0
1 -553 -562 0
1 564 561 0
1 -559 -565 0
1 -559 550 0
1 -566 553 0
1 -566 560 0
1 567 568 0
1 567 402 0
1 567 553 0
1 -567 -414 0
1 -569 416 0
1 569 -570 0
1 569 -553 0
1 569 -571 0
1 572 -573 0
1 573 -427 0
1 -574 -427 0
1 -574 -573 0
1 574 413 0
1 -568 -572 0
1 -575 576 0
1 -575 -567 0
1 -422 -413 0
1 422 577 0
1 422 -405 0
1 -422 578 0
1 422 -406 0
1 -422 270 0
1 427 579 0
1 -427 282 0
1 -580 -574 0
1 -581 -423 0
1 571 -569 0
1 -577 -413 0
1 578 -582 0
1 -423 -418 0
1 -423 -583 0
1 -423 419 0
1 420 425 0
1 584 579 0
1 584 585 0
1 -584 583 0
1 584 425 0
1 579 423 0
1 -579 586 0
1 579 -587 0
1 583 423 0
1 -583 427 0
1 588 589 0
1 -590 -588 0
1 590 591 0
1 590 592 0
1 442 421 0
1 442 -425 0
1 -587 421 0
1 587 -442 0
1 -593 -594 0
1 -595 -428 0
1 -595 421 0
1 595 -596 0
1 596 -597 0
1 -596 -452 0
1 598 587 0
1 -599 -450 0
1 -452 449 0
1 -449 -600 0
1 -449 601 0
1 -602 449 0
1 602 -430 0
1 602 440 0
1 -431 603 0
1 431 -604 0
1 604 438 0
1 604 -605 0
1 -606 607 0
1 606 451 0
1 -608 606 0
1 438 609 0
1 605 610 0
1 -605 611 0
1 -612 460 0
1 -612 605 0
1 609 -438 0
1 609 -466 0
1 609 454 0
1 -609 -446 0
1 -458 613 0
1 458 608 0
1 -458 611 0
1 614 615 0
1 614 -608 0
1 446 606 0
1 446 -616 0
1 -617 606 0
1 617 -618 0
1 -619 -451 0
1 619 618 0
1 -619 614 0
1 451 620 0
1 -464 446 0
1 -621 622 0
1 -623 -624 0
1 -625 626 0
1 -626 484 0
1 -626 -614 0
1 627 620 0
1 -627 628 0
1 -615 620 0
1 -615 629 0
1 -630 479 0
1 -630 478 0
1 -472 -618 0
1 -631 632 0
1 -631 -476 0
1 -484 624 0
1 -484 476 0
1 484 -626 0
1 624 489 0
1 633 -624 0
1 -633 465 0
1 634 631 0
1 -622 -621 0
1 622 -635 0
1 -475 489 0
1 475 636 0
1 -637 638 0
1 -637 487 0
1 637 -639 0
1 -488 -640 0
1 488 -639 0
1 -641 -484 0
1 632 642 0
1 -486 643 0
1 644 639 0
1 -644 636 0
1 -645 -646 0
1 638 647 0
1 -638 648 0
1 -639 638 0
1 639 649 0
1 639 -650 0
1 639 508 0
1 477 651 0
1 477 644 0
1 651 652 0
1 -651 645 0
1 -651 -637 0
1 -508 -653 0
1 -653 -506 0
1 -653 -654 0
1 -510 509 0
1 510 506 0
1 -510 -638 0
1 510 -650 0
1 -510 -646 0
1 655 -656 0
1 646 -510 0
1 -646 -657 0
1 646 -644 0
1 -646 348 0
1 -507 505 0
1 507 658 0
1 -507 514 0
1 -659 -660 0
1 659 -661 0
1 -659 514 0
1 662 661 0
1 663 -664 0
1 -658 662 0
1 665 -483 0
1 -665 650 0
1 -666 -663 0
1 667 -663 0
1 667 512 0
1 -668 -669 0
1 670 -664 0
1 660 -671 0
1 -672 -673 0
1 669 -673 0
1 -674 -668 0
1 -674 -675 0
1 674 673 0
1 676 674 0
1 677 676 0
1 512 -678 0
1 -512 -679 0
1 -512 -676 0
1 -512 -677 0
1 -675 -672 0
1 675 -676 0
1 -680 681 0
1 -682 -683 0
1 -683 -680 0
1 -684 -683 0
1 -685 682 0
1 685 -686 0
1 685 687 0
1 688 684 0
1 689 -684 0
1 690 -688 0
1 -690 523 0
1 691 -692 0
1 693 -694 0
1 693 695 0
1 696 697 0
1 -696 698 0
1 696 699 0
1 -523 -520 0
1 700 701 0
1 -700 702 0
1 700 703 0
1 -701 704 0
1 -702 -695 0
1 705 523 0
1 706 538 0
1 534 707 0
1 -708 709 0
1 708 -703 0
1 710 711 0
1 709 700 0
1 709 712 0
1 711 -713 0
1 711 -534 0
1 711 714 0
1 711 -715 0
1 -532 -531 0
1 -532 527 0
1 -531 709 0
1 531 -716 0
1 717 718 0
1 552 -719 0
1 -552 717 0
1 -552 -720 0
1 -719 720 0
1 -719 721 0
1 722 723 0
1 722 -724 0
1 -716 -722 0
1 -544 -725 0
1 -544 541 0
1 -544 549 0
1 -544 -721 0
1 544 718 0
1 721 388 0
1 721 719 0
1 -721 718 0
1 -726 549 0
1 726 -720 0
1 727 728 0
1 727 388 0
1 727 -535 0
1 729 -721 0
1 -730 -726 0
1 -730 731 0
1 730 552 0
1 -535 723 0
1 535 -544 0
1 535 -533 0
1 -718 726 0
1 718 -538 0
1 718 -552 0
1 -732 547 0
1 731 733 0
1 -570 -558 0
1 -734 -558 0
1 -734 729 0
1 -734 -545 0
1 -734 -733 0
1 545 735 0
1 545 736 0
1 547 -570 0
1 547 734 0
1 565 -568 0
1 -565 -560 0
1 -737 -557 0
1 738 568 0
1 -738 -739 0
1 738 563 0
1 576 568 0
1 576 738 0
1 576 555 0
1 557 740 0
1 557 -556 0
1 741 -570 0
1 740 423 0
1 740 742 0
1 -743 420 0
1 -585 -744 0
1 745 -578 0
1 -745 555 0
1 744 -560 0
1 -563 740 0
1 -563 745 0
1 -563 -746 0
1 -742 740 0
1 -739 745 0
1 739 -747 0
1 -592 -748 0
1 589 -749 0
1 -589 -592 0
1 -750 -747 0
1 751 -586 0
1 752 753 0
1 -752 585 0
1 748 568 0
1 -748 754 0
1 748 755 0
1 756 755 0
1 756 750 0
1 -591 751 0
1 591 -421 0
1 -586 751 0
1 -586 -582 0
1 757 -758 0
1 -759 -607 0
1 759 753 0
1 582 -760 0
1 -582 761 0
1 -582 -578 0
1 -762 598 0
1 -597 760 0
1 -597 -759 0
1 -597 598 0
1 763 -764 0
1 763 -765 0
1 -607 -766 0
1 -764 597 0
1 767 -603 0
1 -767 -611 0
1 -766 -762 0
1 766 -768 0
1 -769 -597 0
1 -611 770 0
1 -611 605 0
1 771 -770 0
1 770 -772 0
1 773 -607 0
1 773 774 0
1 -773 775 0
1 776 777 0
1 776 -771 0
1 -778 -598 0
1 -778 768 0
1 -774 -779 0
1 780 781 0
1 780 -782 0
1 783 -784 0
1 779 -785 0
1 -779 780 0
1 -779 786 0
1 781 -774 0
1 618 -787 0
1 -788 -789 0
1 784 -618 0
1 -789 -788 0
1 -789 790 0
1 789 -791 0
1 787 -792 0
1 -787 793 0
1 794 795 0
1 629 634 0
1 629 622 0
1 -796 792 0
1 -796 -634 0
1 796 -795 0
1 -635 -784 0
1 635 -488 0
1 797 629 0
1 798 635 0
1 795 -799 0
1 -800 635 0
1 -801 798 0
1 -801 -802 0
1 -803 -797 0
1 804 -642 0
1 -804 -802 0
1 -642 632 0
1 642 805 0
1 -806 -796 0
1 -807 -808 0
1 -807 -803 0
1 802 -809 0
1 802 803 0
1 810 641 0
1 811 812 0
1 -811 632 0
1 811 651 0
1 813 808 0
1 -813 -814 0
1 -808 815 0
1 -808 651 0
1 -812 816 0
1 817 -818 0
1 -819 811 0
1 805 622 0
1 -820 -652 0
1 652 812 0
1 -652 -821 0
1 -816 822 0
1 816 -649 0
1 821 823 0
1 815 -816 0
1 814 824 0
1 814 652 0
1 814 808 0
1 657 -655 0
1 -657 -822 0
1 -657 825 0
1 -826 827 0
1 -826 648 0
1 -826 828 0
1 826 658 0
1 826 -829 0
1 -830 -821 0
1 -648 656 0
1 648 -818 0
1 -648 831 0
1 -649 -818 0
1 649 -832 0
1 649 833 0
1 -822 -834 0
1 -834 -823 0
1 835 -663 0
1 -835 649 0
1 835 -829 0
1 -664 -827 0
1 664 -669 0
1 -836 827 0
1 -836 -648 0
1 -836 -833 0
1 -836 -829 0
1 833 -837 0
1 833 838 0
1 839 830 0
1 -840 836 0
1 840 841 0
1 829 835 0
1 -829 -842 0
1 -843 839 0
1 -843 844 0
1 845 660 0
1 -845 -843 0
1 -846 515 0
1 847 848 0
1 -847 837 0
1 -847 842 0
1 838 846 0
1 838 -833 0
1 -837 849 0
1 -837 845 0
1 -844 -850 0
1 -844 -658 0
1 -848 851 0
1 -678 -675 0
1 -678 515 0
1 -678 -677 0
1 -679 -677 0
1 852 -678 0
1 -852 853 0
1 -852 854 0
1 -853 855 0
1 853 -856 0
1 671 857 0
1 -858 859 0
1 860 861 0
1 862 852 0
1 -859 -863 0
1 859 864 0
1 864 865 0
1 -864 866 0
1 864 867 0
1 868 -857 0
1 861 868 0
1 869 870 0
1 871 -872 0
1 872 873 0
1 870 -874 0
1 875 876 0
1 873 -686 0
1 -687 872 0
1 877 -878 0
1 877 -687 0
1 877 874 0
1 -877 -873 0
1 879 -871 0
1 -880 876 0
1 880 687 0
1 -694 877 0
1 -694 -881 0
1 -694 -696 0
1 694 -882 0
1 878 684 0
1 878 -693 0
1 -699 -883 0
1 -699 -696 0
1 -699 884 0
1 885 886 0
1 -887 687 0
1 -887 -888 0
1 887 873 0
1 886 889 0
1 -886 687 0
1 886 -698 0
1 -886 873 0
1 890 885 0
1 881 -891 0
1 698 690 0
1 -698 887 0
1 -892 690 0
1 892 696 0
1 -892 -705 0
1 892 -698 0
1 -893 -894 0
1 -893 886 0
1 884 895 0
1 883 896 0
1 -883 -699 0
1 -897 -892 0
1 897 -898 0
1 897 -699 0
1 -897 -895 0
1 -899 -897 0
1 896 692 0
1 896 -532 0
1 713 697 0
1 -900 -692 0
1 692 -893 0
1 -692 901 0
1 902 -903 0
1 -697 696 0
1 -697 904 0
1 -905 906 0
1 905 722 0
1 -905 907 0
1 -905 707 0
1 908 -727 0
1 -704 -725 0
1 704 908 0
1 -704 -905 0
1 909 -725 0
1 -909 910 0
1 909 911 0
1 906 -724 0
1 -906 -908 0
1 907 912 0
1 -723 913 0
1 723 -911 0
1 -723 -716 0
1 914 -714 0
1 -914 915 0
1 914 718 0
1 -916 914 0
1 916 913 0
1 714 917 0
1 -714 -916 0
1 714 -913 0
1 -913 917 0
1 913 918 0
1 913 -914 0
1 913 -911 0
1 -919 -920 0
1 919 -535 0
1 -921 730 0
1 921 -919 0
1 921 -922 0
1 921 -923 0
1 -924 925 0
1 924 -918 0
1 924 -923 0
1 735 547 0
1 915 926 0
1 -915 919 0
1 915 -914 0
1 915 719 0
1 915 916 0
1 927 -926 0
1 -927 928 0
1 920 -914 0
1 920 735 0
1 920 -916 0
1 -929 -914 0
1 -930 931 0
1 930 733 0
1 930 927 0
1 -932 728 0
1 -926 -736 0
1 933 -926 0
1 -933 934 0
1 -933 915 0
1 935 930 0
1 -935 -749 0
1 -925 -730 0
1 -931 930 0
1 -936 -937 0
1 -936 938 0
1 939 558 0
1 -939 557 0
1 939 -935 0
1 747 -940 0
1 -941 942 0
1 941 -943 0
1 -941 -739 0
1 -941 747 0
1 -942 944 0
1 736 933 0
1 -934 -938 0
1 755 739 0
1 755 -563 0
1 945 -946 0
1 -946 -947 0
1 946 -948 0
1 -940 760 0
1 949 -941 0
1 -949 -950 0
1 -949 951 0
1 943 948 0
1 -760 -597 0
1 -765 952 0
1 -953 754 0
1 -953 954 0
1 -953 955 0
1 -955 760 0
1 -955 -761 0
1 -955 956 0
1 -957 563 0
1 958 -956 0
1 -958 945 0
1 761 -754 0
1 -761 -759 0
1 959 -761 0
1 -960 -961 0
1 962 775 0
1 963 -761 0
1 954 -782 0
1 954 -960 0
1 954 -964 0
1 954 965 0
1 -966 -967 0
1 -966 -765 0
1 -966 965 0
1 966 -962 0
1 -966 959 0
1 -782 968 0
1 -969 970 0
1 969 -776 0
1 971 -972 0
1 971 -973 0
1 -971 772 0
1 -974 785 0
1 -974 960 0
1 -975 976 0
1 -972 977 0
1 772 781 0
1 -772 972 0
1 772 -773 0
1 785 978 0
1 -786 979 0
1 -786 980 0
1 -970 -981 0
1 970 -982 0
1 -983 -782 0
1 -983 -793 0
1 -968 984 0
1 968 -985 0
1 968 772 0
1 -978 -986 0
1 978 -973 0
1 -978 -786 0
1 -987 988 0
1 793 979 0
1 -793 -989 0
1 -792 -796 0
1 792 -990 0
1 -792 789 0
1 -989 -987 0
1 989 991 0
1 989 -992 0
1 989 -993 0
1 988 -994 0
1 -988 799 0
1 -979 -982 0
1 979 995 0
1 -980 -996 0
1 980 979 0
1 -997 -998 0
1 992 795 0
1 -990 -993 0
1 -999 -802 0
1 999 -1000 0
1 -1001 1002 0
1 -1001 791 0
1 1001 -1003 0
1 809 1003 0
1 1004 -1005 0
1 1004 -1006 0
1 1004 1007 0
1 -1008 1009 0
1 -1008 -1010 0
1 1011 -1012 0
1 1011 -1001 0
1 1011 -992 0
1 -1010 -806 0
1 -1010 1013 0
1 -1014 1015 0
1 -1014 805 0
1 1005 1016 0
1 -1005 -1017 0
1 -1013 -1014 0
1 1018 1005 0
1 -1003 1019 0
1 -1002 809 0
1 825 814 0
1 -828 -1020 0
1 -828 -1021 0
1 -828 -814 0
1 -1022 1023 0
1 1022 -830 0
1 -1024 -824 0
1 -1024 1025 0
1 1024 1026 0
1 1024 -825 0
1 1016 1027 0
1 -1016 -1022 0
1 1026 -1028 0
1 1026 1021 0
1 1026 -814 0
1 1025 -836 0
1 1029 -1030 0
1 1031 812 0
1 1031 -1032 0
1 1021 -1025 0
1 -1021 1033 0
1 -1028 -828 0
1 1032 834 0
1 832 -1031 0
1 1034 1035 0
1 1036 1037 0
1 1038 -1039 0
1 -1038 -815 0
1 -1038 1029 0
1 1040 1041 0
1 1040 1025 0
1 1039 -827 0
1 850 -839 0
1 850 -679 0
1 -1042 1043 0
1 -1042 1044 0
1 1042 844 0
1 -1045 1036 0
1 -1045 1046 0
1 -1045 -844 0
1 831 1047 0
1 -1048 831 0
1 -1048 -850 0
1 -1048 649 0
1 1049 1050 0
1 -1051 837 0
1 -1051 671 0
1 -1052 1053 0
1 1054 -1047 0
1 1055 -827 0
1 1055 -1056 0
1 841 1043 0
1 -841 -1047 0
1 841 -1042 0
1 -1043 1057 0
1 1043 1058 0
1 -854 851 0
1 854 853 0
1 -854 861 0
1 854 -852 0
1 857 1059 0
1 -857 -868 0
1 1060 -1054 0
1 -849 -1061 0
1 1062 1063 0
1 851 -1064 0
1 -866 -864 0
1 866 -1065 0
1 -865 1064 0
1 865 855 0
1 1066 -1067 0
1 -1061 1068 0
1 -1069 -1070 0
1 -1069 -1060 0
1 -1069 1071 0
1 -855 -865 0
1 855 1069 0
1 1072 -1073 0
1 -1072 -866 0
1 -1074 -1061 0
1 1071 1075 0
1 -1076 -1075 0
1 -1068 1061 0
1 -1068 1077 0
1 1075 -1071 0
1 1067 1076 0
1 -891 881 0
1 -1078 880 0
1 -1078 -891 0
1 -1078 -1079 0
1 -1080 -1081 0
1 -1080 -1082 0
1 -1083 1084 0
1 1083 -1085 0
1 1083 -1079 0
1 -1086 -1078 0
1 -1086 891 0
1 -1084 891 0
1 1087 -1085 0
1 1088 1086 0
1 -1089 -1090 0
1 1091 903 0
1 -1081 -1091 0
1 1092 -1087 0
1 1085 -880 0
1 1085 889 0
1 1085 1080 0
1 895 -1081 0
1 895 -1091 0
1 -903 -724 0
1 -903 1091 0
1 -888 -898 0
1 -1093 1094 0
1 1093 -1095 0
1 1096 -890 0
1 -1096 1097 0
1 -1098 -881 0
1 1098 -1099 0
1 901 -907 0
1 1100 906 0
1 912 -914 0
1 -912 1101 0
1 -1102 918 0
1 -1103 -912 0
1 1103 -901 0
1 -1104 1105 0
1 1104 -899 0
1 -1104 -1106 0
1 -1104 -1103 0
1 -1107 -906 0
1 1108 -704 0
1 -1108 -1109 0
1 918 -1110 0
1 918 924 0
1 918 -1111 0
1 -918 -1102 0
1 -1112 -1102 0
1 1110 1113 0
1 1101 -1110 0
1 -1114 1115 0
1 -1114 1116 0
1 1114 -1117 0
1 1114 1112 0
1 1111 918 0
1 917 923 0
1 -1118 1119 0
1 -1118 913 0
1 -1120 -920 0
1 -1121 1122 0
1 1121 1123 0
1 -1121 -1124 0
1 -1119 1125 0
1 1126 1117 0
1 -1126 1118 0
1 1127 -928 0
1 -1125 -1128 0
1 -1124 938 0
1 1129 1120 0
1 -1129 1130 0
1 -1129 1131 0
1 1123 -1132 0
1 -1123 -1133 0
1 -937 -1134 0
1 -937 1122 0
1 -937 931 0
1 -1135 -1122 0
1 1135 -1124 0
1 1136 -1122 0
1 1136 736 0
1 1136 1124 0
1 1136 928 0
1 -1137 1138 0
1 928 -1139 0
1 1139 934 0
1 1139 956 0
1 -1138 1140 0
1 1141 -1142 0
1 1141 1136 0
1 1141 -1143 0
1 1140 -1138 0
1 1144 1136 0
1 -1144 -1145 0
1 -1144 -1146 0
1 950 1147 0
1 -950 -946 0
1 -947 -1148 0
1 -961 -960 0
1 -1149 -1150 0
1 944 -1151 0
1 -944 950 0
1 -944 -1152 0
1 -1153 1154 0
1 1155 -1150 0
1 -1155 -955 0
1 1151 -1156 0
1 -1151 1157 0
1 -1157 1158 0
1 1159 -1158 0
1 1158 -1160 0
1 -1158 -1161 0
1 -951 -1160 0
1 -951 1162 0
1 -965 975 0
1 -965 1163 0
1 -976 -975 0
1 976 -785 0
1 976 -1164 0
1 -1165 -1166 0
1 -1165 786 0
1 -1167 -976 0
1 -1167 -977 0
1 1167 -965 0
1 -1167 -955 0
1 1168 1167 0
1 -1168 1169 0
1 -1168 976 0
1 1168 1151 0
1 -1170 1151 0
1 -1170 -1171 0
1 -984 974 0
1 -984 -978 0
1 -1172 1167 0
1 1172 -792 0
1 1172 -1173 0
1 -1172 -968 0
1 1172 -1174 0
1 985 967 0
1 -985 -964 0
1 -1175 -1176 0
1 964 973 0
1 -964 -1165 0
1 -1166 -754 0
1 -1166 -1177 0
1 -1166 -1178 0
1 -967 966 0
1 967 -1179 0
1 -986 -1180 0
1 -986 970 0
1 -986 -979 0
1 1181 1182 0
1 1174 986 0
1 -1183 975 0
1 -1182 1172 0
1 -1184 991 0
1 -1184 -1185 0
1 -1184 989 0
1 -1184 1174 0
1 1184 980 0
1 -991 1180 0
1 991 -989 0
1 -1186 -1180 0
1 1187 -994 0
1 -981 -1188 0
1 1185 -1188 0
1 1185 1189 0
1 -1185 1184 0
1 1190 1191 0
1 1012 -1192 0
1 1012 -1193 0
1 -1012 -1194 0
1 -1015 -1000 0
1 -1195 -1196 0
1 1195 1197 0
1 1017 1198 0
1 -1197 1199 0
1 -1197 1187 0
1 -994 1199 0
1 -994 -1009 0
1 -994 -1195 0
1 -1200 1201 0
1 -1200 1195 0
1 1006 -1198 0
1 -1009 -1008 0
1 -1009 1002 0
1 1202 1196 0
1 1202 1203 0
1 1199 1198 0
1 1198 1009 0
1 -1198 -1195 0
1 -1204 1019 0
1 -1204 1195 0
1 -1019 -1013 0
1 1019 1026 0
1 1019 -1020 0
1 1205 1206 0
1 -1007 -1199 0
1 1007 1207 0
1 1203 1199 0
1 1203 -1208 0
1 1206 -1209 0
1 1210 -1211 0
1 -1212 -1016 0
1 -1212 -1213 0
1 -1214 -1215 0
1 -1216 1217 0
1 1217 1044 0
1 -1215 1205 0
1 1218 1219 0
1 -1218 -1030 0
1 1220 -1221 0
1 -1220 -1222 0
1 -1220 1030 0
1 -1223 1028 0
1 -1044 -1224 0
1 1046 -1225 0
1 -1226 1216 0
1 -1226 -1227 0
1 1228 -1229 0
1 -1228 1041 0
1 1228 -1227 0
1 1228 -1223 0
1 -1230 -1231 0
1 1230 -1207 0
1 -1225 1230 0
1 -1225 -1216 0
1 1225 1232 0
1 1050 -1047 0
1 -1050 1038 0
1 1227 -1050 0
1 1227 1036 0
1 1229 -1056 0
1 1233 -1037 0
1 -1233 1052 0
1 -1234 1235 0
1 1236 1237 0
1 -1236 1233 0
1 1238 -1234 0
1 -1238 -1049 0
1 1235 -1234 0
1 1235 1238 0
1 -1239 1240 0
1 -1058 -1241 0
1 -1037 -1242 0
1 -1243 -1237 0
1 -1243 1058 0
1 1243 -1240 0
1 1243 1244 0
1 -1240 1243 0
1 1065 -1244 0
1 1064 -1245 0
1 -1242 -1246 0
1 1242 1241 0
1 1247 1057 0
1 1247 1248 0
1 -1247 -1249 0
1 -1241 -1064 0
1 1250 -1251 0
1 1063 1246 0
1 -1063 1059 0
1 1063 1241 0
1 -1073 -1241 0
1 -1252 1246 0
1 1252 1253 0
1 1254 1255 0
1 1254 -1073 0
1 1249 1255 0
1 1249 -1073 0
1 1099 -1256 0
1 1099 1091 0
1 -1257 1258 0
1 -1259 -1095 0
1 -1260 -1257 0
1 1260 1259 0
1 1258 1261 0
1 1258 -1099 0
1 1094 1262 0
1 1094 1093 0
1 1094 -1104 0
1 1094 -1260 0
1 1097 -1262 0
1 -1097 1093 0
1 -1097 1096 0
1 1263 -1256 0
1 -1264 -1262 0
1 -1264 1265 0
1 1266 -1116 0
1 -1266 -1267 0
1 -1266 1259 0
1 1268 1116 0
1 1268 1257 0
1 1269 1270 0
1 -1269 -1259 0
1 -1262 -1271 0
1 1262 1097 0
1 -1105 1114 0
1 1105 1268 0
1 -1105 -1111 0
1 1105 -1106 0
1 1105 -1102 0
1 1106 -1268 0
1 -1116 1267 0
1 -1267 -1114 0
1 -1267 -1272 0
1 -1265 1273 0
1 1265 -1274 0
1 -1275 -1093 0
1 1275 1276 0
1 -1277 1106 0
1 -1277 -1278 0
1 -1279 -1280 0
1 1274 1111 0
1 -1274 1265 0
1 -1117 1281 0
1 1273 1265 0
1 -1273 -1282 0
1 -1128 1126 0
1 1128 -1283 0
1 1284 -1131 0
1 -1284 1102 0
1 -1281 -1134 0
1 1281 -1273 0
1 1285 -1272 0
1 1285 1286 0
1 1272 1116 0
1 -1133 1129 0
1 -1133 -1134 0
1 -1133 1287 0
1 1134 -1276 0
1 1131 1115 0
1 1131 -1288 0
1 1132 1289 0
1 -1113 1128 0
1 -1290 -1291 0
1 1115 -1292 0
1 1283 1293 0
1 1294 -1295 0
1 1296 1297 0
1 -1296 -1294 0
1 -1296 -1146 0
1 1289 1131 0
1 1298 -1132 0
1 1298 -1299 0
1 -1298 1295 0
1 1298 -1131 0
1 -1145 -1300 0
1 -1297 1140 0
1 1301 1296 0
1 1301 1302 0
1 -1146 1149 0
1 1303 1145 0
1 1302 1154 0
1 1302 -1304 0
1 1305 -1297 0
1 1305 1306 0
1 -1307 1145 0
1 1307 -1308 0
1 -1309 -1140 0
1 1309 -1153 0
1 -1143 -1141 0
1 -1143 -1303 0
1 -1143 1310 0
1 1156 -1306 0
1 1154 1311 0
1 -1312 -1301 0
1 -1312 1162 0
1 1310 1143 0
1 1313 1156 0
1 -1314 -1310 0
1 -1162 -1315 0
1 -1162 -1312 0
1 1162 1316 0
1 1164 -1311 0
1 -1164 951 0
1 -1317 -1318 0
1 1317 -1319 0
1 -1317 -951 0
1 1320 1321 0
1 1322 -1323 0
1 -1322 1317 0
1 -1311 1324 0
1 1160 -1320 0
1 -1171 -1325 0
1 -1326 -1327 0
1 1319 1328 0
1 1319 1171 0
1 1319 -1317 0
1 -1329 1164 0
1 -1329 -1330 0
1 -1169 -1166 0
1 -1331 1332 0
1 -1331 -982 0
1 1178 -1166 0
1 1178 -1333 0
1 -1334 -967 0
1 1334 -1335 0
1 -1334 1336 0
1 -1333 1173 0
1 1333 1158 0
1 1333 1177 0
1 -1333 -1178 0
1 -1335 1173 0
1 1332 1169 0
1 -1332 1334 0
1 -1177 1166 0
1 -1176 1337 0
1 1176 -1175 0
1 1337 -1338 0
1 1337 1339 0
1 -1337 -1193 0
1 1340 -1339 0
1 1340 1341 0
1 -1340 -1178 0
1 1342 1341 0
1 -1193 1012 0
1 -1343 1183 0
1 1343 -1344 0
1 1343 -1182 0
1 1189 1345 0
1 1189 -1179 0
1 -1346 -1347 0
1 -1346 -1348 0
1 -1349 1346 0
1 -1350 -1191 0
1 -1351 -1352 0
1 1351 -1346 0
1 1351 1353 0
1 1179 1354 0
1 1179 -1355 0
1 1179 -967 0
1 -1188 1339 0
1 1356 995 0
1 1356 1202 0
1 -1356 -1357 0
1 -1358 -1349 0
1 -1358 1359 0
1 -1345 1356 0
1 1345 1360 0
1 1361 -1362 0
1 -1361 -1201 0
1 1361 -1189 0
1 -1347 1346 0
1 1348 -1363 0
1 1201 1196 0
1 1364 -1359 0
1 1365 -1366 0
1 -1365 1367 0
1 -1365 1368 0
1 1369 -1345 0
1 1369 -1361 0
1 -1370 981 0
1 1370 1201 0
1 1370 1371 0
1 -1367 1372 0
1 -1367 -1371 0
1 1359 1373 0
1 -1359 1201 0
1 1359 -1369 0
1 -1374 -1370 0
1 -1368 1371 0
1 1375 1368 0
1 1219 1203 0
1 1219 1220 0
1 1376 1221 0
1 1376 -1374 0
1 1377 -1231 0
1 1378 -1379 0
1 1380 -1381 0
1 -1380 1211 0
1 -1221 1377 0
1 -1221 1376 0
1 -1231 -1377 0
1 1231 1382 0
1 1383 -1232 0
1 -1232 1376 0
1 1384 1385 0
1 1384 -1232 0
1 -1208 -1221 0
1 1208 1386 0
1 1209 1387 0
1 -1209 -1386 0
1 1387 -1383 0
1 1387 1385 0
1 -1387 1232 0
1 1387 -1388 0
1 1389 1236 0
1 1390 -1225 0
1 1391 -1392 0
1 1391 1208 0
1 1393 -1394 0
1 1394 -1383 0
1 -1395 -1237 0
1 -1395 -1396 0
1 -1397 1398 0
1 -1399 1398 0
1 -1399 1390 0
1 1399 -1386 0
1 -1244 1400 0
1 -1237 1394 0
1 -1401 -1402 0
1 1248 1403 0
1 -1248 -1240 0
1 -1404 -1405 0
1 1400 1401 0
1 1400 -1391 0
1 1392 1406 0
1 1406 1401 0
1 1407 1251 0
1 1407 1400 0
1 -1251 1403 0
1 -1408 -1409 0
1 1410 1401 0
1 -1403 1251 0
1 1403 1248 0
1 -1411 -1224 0
1 -1270 1266 0
1 1271 1270 0
1 -1271 1117 0
1 -1282 -1412 0
1 -1282 1413 0
1 -1282 -1414 0
1 1413 1279 0
1 1414 1270 0
1 -1415 -1416 0
1 -1417 -1418 0
1 1261 -1258 0
1 1287 1419 0
1 1287 -1412 0
1 1287 -1285 0
1 1276 -1420 0
1 -1276 1285 0
1 1416 -1421 0
1 -1416 -1422 0
1 1423 1424 0
1 1412 1287 0
1 1420 -1425 0
1 1419 -1426 0
1 1286 1295 0
1 1427 -1283 0
1 1292 1280 0
1 1292 -1428 0
1 -1293 1429 0
1 -1278 -1430 0
1 1280 1293 0
1 1280 1431 0
1 -1432 -1291 0
1 1432 -1113 0
1 -1432 -1298 0
1 1291 1428 0
1 1299 -1433 0
1 -1434 1435 0
1 -1434 -1436 0
1 1435 -1306 0
1 1435 -1437 0
1 -1438 1439 0
1 1429 1285 0
1 1429 -1428 0
1 1429 -1440 0
1 1428 -1291 0
1 1428 -1299 0
1 -1441 -1435 0
1 -1442 1437 0
1 -1442 -1439 0
1 -1443 -1442 0
1 1443 -1299 0
1 -1444 -1445 0
1 -1444 -1446 0
1 -1444 1447 0
1 -1444 -1448 0
1 1436 1306 0
1 1436 -1283 0
1 -1436 1449 0
1 1436 -1448 0
1 -1436 1441 0
1 -1316 -1442 0
1 1316 1302 0
1 1316 -1448 0
1 -1450 1451 0
1 -1450 1452 0
1 1452 1453 0
1 1452 -1304 0
1 1454 -1455 0
1 1454 -1456 0
1 -1456 -1454 0
1 1456 1450 0
1 -1457 -1458 0
1 1325 -1312 0
1 1459 -1460 0
1 -1459 -1453 0
1 1304 -1324 0
1 -1304 -1459 0
1 1453 -1461 0
1 -1453 1459 0
1 -1462 1450 0
1 1328 1329 0
1 -1328 -1321 0
1 1321 1320 0
1 -1321 -1322 0
1 -1463 1460 0
1 1464 1463 0
1 -1464 1465 0
1 1464 1466 0
1 -1467 -1468 0
1 1460 -1459 0
1 -1469 -1470 0
1 1469 1459 0
1 -1471 1472 0
1 -1473 1327 0
1 -1473 1472 0
1 1474 -1475 0
1 -1474 1476 0
1 1477 1478 0
1 -1477 1479 0
1 1466 1468 0
1 1466 1464 0
1 -1466 1480 0
1 1466 1473 0
1 -1323 1475 0
1 1323 1481 0
1 -1323 1482 0
1 1475 1482 0
1 -1475 -1464 0
1 -1475 1483 0
1 -1480 1466 0
1 -1480 -1484 0
1 -1485 -1486 0
1 1341 1487 0
1 -1341 1488 0
1 -1341 -1466 0
1 -1479 -1341 0
1 -1479 1489 0
1 -1490 1479 0
1 -1491 -1492 0
1 -1491 -1493 0
1 1339 1342 0
1 -1357 1494 0
1 -1354 -1338 0
1 -1493 1495 0
1 -1494 1357 0
1 -1355 -1350 0
1 -1352 1351 0
1 -1352 1350 0
1 -1363 -1493 0
1 1496 1497 0
1 1496 -1369 0
1 -1338 1352 0
1 1498 1338 0
1 -1498 -1363 0
1 -1499 -1352 0
1 -1499 -1500 0
1 1499 1495 0
1 1501 -1500 0
1 -1362 -1502 0
1 -1362 1348 0
1 -1362 -1359 0
1 1373 1503 0
1 -1373 1504 0
1 1373 -1498 0
1 -1505 1338 0
1 -1505 -1498 0
1 1505 1497 0
1 -1506 -1507 0
1 -1506 -1363 0
1 -1508 1505 0
1 -1353 1509 0
1 -1497 1507 0
1 1497 1363 0
1 1497 -1360 0
1 1497 1496 0
1 1372 -1508 0
1 -1371 1504 0
1 1371 -1368 0
1 -1510 -1375 0
1 1510 1506 0
1 1510 1503 0
1 1510 -1368 0
1 1510 1508 0
1 1504 1373 0
1 -1511 1504 0
1 1511 1512 0
1 1503 -1513 0
1 1503 1514 0
1 1503 -1347 0
1 1515 -1516 0
1 -1515 -1507 0
1 1515 -1517 0
1 -1515 1371 0
1 1379 1382 0
1 -1379 -1518 0
1 1382 1519 0
1 1381 -1520 0
1 -1521 1380 0
1 -1521 -1522 0
1 1522 1514 0
1 1522 1523 0
1 -1518 -1514 0
1 1518 1524 0
1 1518 -1510 0
1 -1518 -1525 0
1 1526 -1527 0
1 1388 1528 0
1 -1388 1524 0
1 1524 1529 0
1 1524 1380 0
1 1524 -1530 0
1 1531 1528 0
1 1531 -1532 0
1 1528 -1521 0
1 1533 -1525 0
1 -1533 1534 0
1 1386 -1387 0
1 1386 1535 0
1 -1385 1536 0
1 1385 -1399 0
1 1398 1528 0
1 -1398 -1537 0
1 1398 1248 0
1 -1398 -1538 0
1 -1398 -1535 0
1 1398 1539 0
1 1532 -1540 0
1 -1532 -1541 0
1 -1532 -1534 0
1 1542 1543 0
1 -1542 1402 0
1 -1537 -1544 0
1 1537 1531 0
1 -1396 1395 0
1 -1396 -1406 0
1 -1545 1251 0
1 1545 -1532 0
1 -1546 1540 0
1 -1433 -1547 0
1 -1433 -1299 0
1 1433 -1548 0
1 1433 1278 0
1 1549 -1550 0
1 1551 -1549 0
1 -1551 -1433 0
1 -1550 -1552 0
1 1553 -1551 0
1 1553 1280 0
1 -1553 1548 0
1 1431 1551 0
1 -1554 1426 0
1 -1554 1555 0
1 -1554 -1429 0
1 -1440 -1551 0
1 -1440 -1425 0
1 1548 1446 0
1 1548 1448 0
1 1426 -1440 0
1 -1556 -1444 0
1 1448 -1557 0
1 1448 -1428 0
1 -1448 1429 0
1 1447 -1548 0
1 -1447 -1558 0
1 1559 -1446 0
1 1559 1560 0
1 -1559 1561 0
1 -1559 -1440 0
1 -1560 1562 0
1 -1560 1559 0
1 -1560 -1440 0
1 1563 -1557 0
1 -1563 1447 0
1 -1557 -1562 0
1 -1557 1554 0
1 -1557 1440 0
1 -1445 -1457 0
1 1445 1558 0
1 1458 1444 0
1 1458 1560 0
1 -1458 -1443 0
1 -1458 1564 0
1 -1458 1559 0
1 -1565 1566 0
1 -1567 1568 0
1 1566 -1458 0
1 1566 1447 0
1 1569 1570 0
1 1569 1571 0
1 1455 -1457 0
1 -1455 1454 0
1 -1455 1572 0
1 -1568 1457 0
1 1573 1571 0
1 1573 1572 0
1 -1573 -1462 0
1 1461 1574 0
1 -1461 -1575 0
1 -1461 -1572 0
1 -1461 -1576 0
1 -1572 1577 0
1 1578 -1570 0
1 -1578 1579 0
1 -1578 -1580 0
1 -1449 1573 0
1 -1472 -1570 0
1 1472 1574 0
1 1472 -1469 0
1 1472 -1473 0
1 -1472 1471 0
1 -1581 1572 0
1 -1576 1461 0
1 -1574 -1582 0
1 -1574 1583 0
1 -1582 1581 0
1 -1482 -1584 0
1 1482 -1467 0
1 -1483 1585 0
1 1487 1341 0
1 -1487 -1470 0
1 -1487 1323 0
1 1487 1586 0
1 -1584 1587 0
1 1588 1589 0
1 1588 1478 0
1 1586 1590 0
1 -1586 1483 0
1 -1591 1481 0
1 -1481 1585 0
1 1592 -1593 0
1 1593 -1594 0
1 1595 -1596 0
1 1597 -1595 0
1 1597 1483 0
1 -1470 1593 0
1 -1470 1469 0
1 1470 1587 0
1 -1470 -1585 0
1 1585 1598 0
1 -1599 -1600 0
1 -1599 1492 0
1 -1601 1600 0
1 -1601 -1594 0
1 1602 1492 0
1 1602 -1603 0
1 1604 1593 0
1 -1605 1593 0
1 -1605 -1604 0
1 1600 1606 0
1 -1600 -1607 0
1 -1502 1598 0
1 1495 -1488 0
1 -1608 1499 0
1 -1608 1609 0
1 1608 -1610 0
1 1608 1604 0
1 -1608 1500 0
1 -1500 1610 0
1 1500 1611 0
1 1612 -1613 0
1 -1603 -1495 0
1 1609 -1608 0
1 -1609 -1614 0
1 1615 -1338 0
1 -1509 1616 0
1 1617 1610 0
1 1611 -1618 0
1 -1611 -1619 0
1 1611 1620 0
1 1611 1615 0
1 -1621 1619 0
1 1507 1515 0
1 -1516 -1621 0
1 -1517 -1622 0
1 -1623 -1527 0
1 -1624 -1617 0
1 1616 1516 0
1 1622 1507 0
1 -1513 1625 0
1 -1530 1504 0
1 1530 -1626 0
1 1530 1625 0
1 1627 -1531 0
1 1628 -1536 0
1 1625 -1513 0
1 1625 -1508 0
1 -1629 1513 0
1 1626 1630 0
1 1525 1631 0
1 -1525 1386 0
1 1536 -1632 0
1 -1633 1625 0
1 1634 1529 0
1 1634 1631 0
1 1632 1627 0
1 1632 -1525 0
1 -1631 1503 0
1 -1631 -1635 0
1 1635 -1627 0
1 -1543 -1537 0
1 1543 1544 0
1 1544 1543 0
1 -1636 -1537 0
1 1637 -1636 0
1 1637 1638 0
1 1639 -1640 0
1 1639 -1641 0
1 1564 1642 0
1 1643 1644 0
1 -1641 -1562 0
1 -1641 1645 0
1 -1646 -1561 0
1 -1640 -1647 0
1 1562 1648 0
1 1561 -1566 0
1 1571 1649 0
1 1571 1644 0
1 1571 -1650 0
1 -1571 -1651 0
1 1651 1569 0
1 1651 1641 0
1 -1651 -1652 0
1 1652 -1653 0
1 -1644 1643 0
1 1644 -1580 0
1 -1644 1652 0
1 1648 -1654 0
1 -1648 -1655 0
1 1649 1571 0
1 -1570 1569 0
1 1653 -1656 0
1 1653 -1566 0
1 1657 1652 0
1 -1580 1652 0
1 -1658 1659 0
1 -1658 -1657 0
1 1656 1658 0
1 1660 -1661 0
1 1660 -1653 0
1 -1660 -1651 0
1 1650 -1662 0
1 1577 -1574 0
1 1663 1664 0
1 1663 1658 0
1 -1665 -1666 0
1 1665 1658 0
1 1659 1667 0
1 1659 -1668 0
1 -1664 -1669 0
1 -1664 1668 0
1 -1667 1670 0
1 1671 1672 0
1 -1671 1657 0
1 -1673 -1579 0
1 1673 1576 0
1 1674 -1481 0
1 -1675 1676 0
1 -1675 -1668 0
1 -1590 -1586 0
1 1677 -1666 0
1 -1579 -1678 0
1 1679 -1680 0
1 -1681 -1682 0
1 1683 -1678 0
1 -1683 -1684 0
1 -1684 1676 0
1 1684 1681 0
1 -1684 -1685 0
1 1686 1683 0
1 1686 1675 0
1 -1687 -1597 0
1 1607 -1688 0
1 1607 -1689 0
1 -1688 -1600 0
1 1688 -1690 0
1 -1691 -1692 0
1 -1691 -1688 0
1 1689 -1693 0
1 1690 1688 0
1 -1694 1695 0
1 1694 -1685 0
1 1696 -1697 0
1 1696 -1698 0
1 -1699 -1700 0
1 1699 -1689 0
1 -1614 1606 0
1 1614 -1701 0
1 -1596 1702 0
1 1703 -1607 0
1 1703 1688 0
1 1698 1697 0
1 1698 -1704 0
1 1705 -1706 0
1 1705 -1707 0
1 1705 -1698 0
1 1705 -1708 0
1 1705 -1696 0
1 1705 1585 0
1 -1613 1709 0
1 -1613 -1710 0
1 -1711 -1519 0
1 -1711 -1710 0
1 -1712 -1516 0
1 -1712 1606 0
1 1712 1596 0
1 -1713 -1708 0
1 1713 1700 0
1 1713 1714 0
1 1701 1713 0
1 1709 1699 0
1 1709 1715 0
1 1700 1713 0
1 1700 -1614 0
1 1606 -1600 0
1 -1606 1613 0
1 -1606 -1713 0
1 -1606 1614 0
1 -1606 -1716 0
1 -1717 1513 0
1 -1717 -1701 0
1 1620 -1611 0
1 1714 -1620 0
1 1714 -1718 0
1 -1719 -1714 0
1 1720 1717 0
1 -1720 -1721 0
1 -1720 -1713 0
1 1722 1620 0
1 -1723 -1616 0
1 1724 -1725 0
1 1726 1634 0
1 -1726 1719 0
1 -1618 1726 0
1 1725 -1724 0
1 -1725 -1727 0
1 -1728 1710 0
1 1729 -1730 0
1 1729 1723 0
1 -1731 -1732 0
1 1731 1625 0
1 1731 -1718 0
1 1733 1618 0
1 1733 1734 0
1 -1733 -1631 0
1 1733 -1625 0
1 -1735 -1637 0
1 1732 1733 0
1 1732 1731 0
1 -1736 1732 0
1 1654 -1647 0
1 -1737 1650 0
1 1645 -1738 0
1 1739 1646 0
1 1739 -1645 0
1 -1740 1660 0
1 -1670 1739 0
1 -1670 1675 0
1 -1738 -1590 0
1 -1738 -1662 0
1 -1738 -1741 0
1 -1742 1743 0
1 1742 -1737 0
1 1743 -1738 0
1 -1743 -1644 0
1 -1743 -1670 0
1 -1744 -1670 0
1 1680 1662 0
1 -1680 -1668 0
1 1745 1746 0
1 1682 1681 0
1 1682 1742 0
1 1678 -1747 0
1 1746 1745 0
1 -1662 1748 0
1 -1662 1682 0
1 -1662 1749 0
1 1750 -1751 0
1 -1750 -1672 0
1 1750 -1679 0
1 1752 -1679 0
1 1752 -1686 0
1 -1753 1754 0
1 -1753 -1686 0
1 -1755 -1672 0
1 1755 -1756 0
1 1755 1688 0
1 -1669 1757 0
1 1756 1758 0
1 -1747 1678 0
1 -1747 1750 0
1 1759 1760 0
1 -1759 1761 0
1 1754 -1762 0
1 1754 -1693 0
1 1754 1763 0
1 -1754 1764 0
1 -1765 1766 0
1 1767 -1768 0
1 1693 -1769 0
1 -1693 1691 0
1 1762 -1705 0
1 -1708 1770 0
1 -1708 1771 0
1 -1772 1773 0
1 -1760 1774 0
1 1775 -1776 0
1 -1775 -1774 0
1 1706 1698 0
1 1707 1777 0
1 1707 -1692 0
1 -1707 1778 0
1 -1779 1778 0
1 1773 1780 0
1 1773 -1692 0
1 1773 1700 0
1 1692 -1781 0
1 -1778 1706 0
1 1778 1721 0
1 1778 -1715 0
1 -1770 1782 0
1 1770 -1773 0
1 1770 -1708 0
1 -1716 -1709 0
1 -1716 -1715 0
1 1716 -1701 0
1 -1721 -1783 0
1 1780 -1784 0
1 1783 -1779 0
1 -1783 1704 0
1 1718 -1729 0
1 1718 -1702 0
1 -1718 -1785 0
1 1784 -1722 0
1 -1786 1780 0
1 -1786 1702 0
1 1787 -1788 0
1 1787 -1729 0
1 1789 1787 0
1 -1789 1786 0
1 1790 1784 0
1 1790 -1791 0
1 -1792 -1721 0
1 1751 1793 0
1 -1751 1794 0
1 -1751 1750 0
1 1749 -1655 0
1 -1795 1753 0
1 1796 1797 0
1 -1797 -1798 0
1 1793 1799 0
1 -1800 -1747 0
1 1800 -1801 0
1 1761 -1802 0
1 1803 -1804 0
1 1803 1795 0
1 -1803 1742 0
1 -1802 1748 0
1 -1802 -1795 0
1 -1802 -1803 0
1 1802 -1800 0
1 -1805 -1655 0
1 1805 1801 0
1 1769 -1747 0
1 -1769 -1669 0
1 1769 1806 0
1 -1758 -1756 0
1 1758 -1803 0
1 1766 1802 0
1 -1766 1807 0
1 1808 1809 0
1 -1808 -1761 0
1 1806 -1766 0
1 1810 -1769 0
1 1810 1811 0
1 1807 -1812 0
1 1807 1810 0
1 1813 1814 0
1 -1813 -1767 0
1 -1777 -1806 0
1 -1777 1767 0
1 -1815 1814 0
1 1816 1815 0
1 -1816 -1806 0
1 1816 1817 0
1 1757 1818 0
1 1757 -1766 0
1 -1757 -1819 0
1 -1820 -1815 0
1 1820 1813 0
1 1814 1813 0
1 1821 -1814 0
1 1821 1813 0
1 -1821 -1777 0
1 -1821 1819 0
1 -1822 -1809 0
1 1822 -1772 0
1 -1822 -1776 0
1 -1822 -1823 0
1 -1776 1820 0
1 -1824 -1825 0
1 -1763 1788 0
1 -1826 1824 0
1 -1785 -1778 0
1 1781 1827 0
1 -1781 -1695 0
1 -1828 1783 0
1 -1788 -1829 0
1 1788 -1830 0
1 1788 -1831 0
1 1827 1788 0
1 -1827 -1782 0
1 1827 1828 0
1 -1831 -1785 0
1 1829 1788 0
1 1832 1807 0
1 1811 1801 0
1 1811 1807 0
1 -1833 -1807 0
1 -1833 -1834 0
1 -1817 1833 0
1 -1835 -1833 0
1 1834 1811 0
1 -1836 -1837 0
1 1836 -1838 0
1 1839 1830 0
1 -1840 -1817 0
1 -1819 1818 0
1 -1819 1785 0
1 -1818 -1768 0
1 1818 -1839 0
1 -1830 -1837 0
1 1837 1806 0
1 1841 -1819 0
1 -1812 -1842 0
